; benchmark generated from python API
(set-info :status unknown)
(declare-fun s () Int)
(define-funs-rec ( ( T2_12 ((x!1 Int)) Int)
                   ( e2_12 ((x!1 Int)) Int)
                   ( fe2_12 ((x!1 Int)) Int)
                   ( p2_12 ((x!1 Int)) Int)
                   ( T2_01 ((x!1 Int)) Int)
                   ( p2_01 ((x!1 Int)) Int))
                 ( (mod (+ ((_ e2_12 0) x!1) 1) 2)
                   (let ((a!1 ((_ fe2_12 0) (+ ((_ e2_12 0) (- x!1 1)) 1))))
                     (ite (= x!1 0) 0 a!1))
                   (ite (= (mod ((_ p2_12 0) x!1) 2) 0)
                        x!1
                        ((_ fe2_12 0) (+ x!1 1)))
                   (ite (= x!1 0) 0 (+ ((_ p2_12 0) (div x!1 2)) x!1))
                   (mod ((_ p2_01 0) x!1) 2)
                   (ite (= x!1 0) 0 (+ ((_ p2_01 0) (div x!1 2)) x!1))))
(assert
 (forall ((n Int) )(let ((?x382 ((_ T2_12 0) n)))
 (let (($x407 (= ?x382 n)))
 (let ((?x381 ((_ T2_01 0) n)))
 (let (($x417 (= ?x381 n)))
 (let (($x416 (and $x417 $x407)))
 (let (($x387 (< n s)))
 (let (($x422 (>= n 0)))
 (let (($x428 (and $x422 $x387)))
 (=> $x428 $x416))))))))))
 )
(assert
 (let ((?x408 ((_ T2_01 0) s)))
 (= ?x408 1)))
(assert
 (let ((?x409 ((_ T2_12 0) s)))
 (= ?x409 1)))
(assert
 (forall ((n Int) )(let ((?x382 ((_ T2_12 0) n)))
(let ((?x381 ((_ T2_01 0) n)))
(let (($x466 (= ?x381 ?x382)))
(let (($x422 (>= n 0)))
(=> $x422 $x466))))))
)
(check-sat)
